Version identifier: 20.1.0.0 | 2020-11-10 | 9bedb6d68
Tried aggregator 2 times.
MIP Presolve eliminated 1845 rows and 1127 columns.
MIP Presolve modified 3398 coefficients.
Aggregator did 181 substitutions.
Reduced MIP has 1380 rows, 1099 columns, and 4375 nonzeros.
Reduced MIP has 247 binaries, 852 generals, 0 SOSs, and 0 indicators.
Presolve time = 0.02 sec. (7.50 ticks)
Found incumbent of value 50.000000 after 0.03 sec. (12.69 ticks)
Probing fixed 40 vars, tightened 328 bounds.
Probing time = 0.00 sec. (1.46 ticks)
Tried aggregator 1 time.
Detecting symmetries...
MIP Presolve eliminated 600 rows and 40 columns.
MIP Presolve modified 46 coefficients.
Reduced MIP has 780 rows, 1059 columns, and 2535 nonzeros.
Reduced MIP has 355 binaries, 704 generals, 0 SOSs, and 0 indicators.
Presolve time = 0.01 sec. (2.97 ticks)
Probing time = 0.00 sec. (0.21 ticks)
Clique table members: 41.
MIP emphasis: balance optimality and feasibility.
MIP search method: dynamic search.
Parallel mode: deterministic, using up to 24 threads.
Root relaxation solution time = 0.02 sec. (2.61 ticks)

        Nodes                                         Cuts/
   Node  Left     Objective  IInf  Best Integer    Best Bound    ItCnt     Gap

*     0+    0                           50.0000        0.0000           100.00%
*     0+    0                           23.0000        0.0000           100.00%
      0     0        0.0000    57       23.0000        0.0000      257  100.00%
*     0+    0                           11.0000        0.0000           100.00%
      0     0        0.3333    34       11.0000      Cuts: 41      361   96.97%
*     0+    0                            9.0000        0.3333            96.30%
      0     0        1.0414   187        9.0000      Cuts: 39      481   88.43%
      0     0        1.0824   174        9.0000      Cuts: 62      524   87.97%
      0     0        1.0824   180        9.0000      Cuts: 31      540   87.97%
      0     0        1.0824   177        9.0000      Cuts: 23      568   87.97%
*     0+    0                            5.0000        1.0824            78.35%
      0     0        cutoff              5.0000        5.0000      568    0.00%
Elapsed time = 0.27 sec. (84.37 ticks, tree = 0.01 MB, solutions = 5)

Cover cuts applied:  2
Implied bound cuts applied:  12
Flow cuts applied:  5
Mixed integer rounding cuts applied:  20
Zero-half cuts applied:  33
Lift and project cuts applied:  1
Gomory fractional cuts applied:  10

Root node processing (before b&c):
  Real time             =    0.27 sec. (84.52 ticks)
Parallel b&c, 24 threads:
  Real time             =    0.00 sec. (0.00 ticks)
  Sync time (average)   =    0.00 sec.
  Wait time (average)   =    0.00 sec.
                          ------------
Total (root+branch&cut) =    0.27 sec. (84.52 ticks)

Solution status = Optimal
Solution LB = 5
Solution UB = 5
Runtime = 0.277654 seconds
	Command being timed: "/home/min/git_repos/CS598MEBProject/CNT-ILP/build/cnt -s 2 ./output/k6_n40/simC_c1_k6_n40_u1_s3_del02.input-left.cnp"
	User time (seconds): 3.73
	System time (seconds): 0.05
	Percent of CPU this job got: 1181%
	Elapsed (wall clock) time (h:mm:ss or m:ss): 0:00.32
	Average shared text size (kbytes): 0
	Average unshared data size (kbytes): 0
	Average stack size (kbytes): 0
	Average total size (kbytes): 0
	Maximum resident set size (kbytes): 70208
	Average resident set size (kbytes): 0
	Major (requiring I/O) page faults: 3
	Minor (reclaiming a frame) page faults: 14178
	Voluntary context switches: 3495
	Involuntary context switches: 745
	Swaps: 0
	File system inputs: 512
	File system outputs: 16
	Socket messages sent: 0
	Socket messages received: 0
	Signals delivered: 0
	Page size (bytes): 4096
	Exit status: 0
